HUN,8,6,819
5,18,3,1,4,1,1,22,0,5,2,6
3,28,1,10,5,7,2,1,0,24,4,10
3,25,4,23,5,6,1,15,0,21,2,23
1,27,3,17,0,20,4,30,2,26,5,27
1,24,3,30,2,4,5,8,0,6,4,2
3,11,1,20,0,18,5,29,2,16,4,30
3,18,0,20,4,26,2,26,5,2,1,7
0,5,2,14,3,27,5,19,4,30,1,20
